30
2
20221
315 343
false
0.25
5 9 26 16 22 26 5 42 23 25 29 17 11 28 41 18 3 15 39 9 3 37 40 2 16 29 29 17 15 37
18 6 43 29 12 5 31 6 21 6 18 40 45 17 36 47 22 17 28 22 30 15 27 38 17 5 5 21 5 30
29 30 5 39 29 4 45 5 75 59 26 66 31 97 36 20 50 88 11 32 20 21 50 95 18 83 89 96 0 58
0 0 0 0 0 0 0 0 0 0 79 0 56 0 0 0 0 0 0 0 0 0 0 0 0 0 0 0 0 51
0 51 0 0 0 0 0 0 0 0 0 0 0 0 0 0 0 0 0 0 0 0 60 67 0 0 0 58 0
0 0 0 0 0 0 12 0 0 0 0 0 0 66 0 0 0 0 26 62 0 0 86 0 0 0 0 0
0 80 0 0 0 0 6 0 0 0 0 0 0 3 0 0 0 0 85 0 0 0 98 25 0 0 87
0 0 0 20 0 4 0 0 0 0 47 23 0 36 0 0 0 0 0 97 99 0 0 0 0 0
0 0 12 0 0 0 0 43 43 0 0 0 0 0 12 4 0 0 58 0 0 91 0 0 0
0 4 0 89 0 0 0 97 0 0 0 0 0 15 0 0 0 96 0 0 0 85 87 0
0 0 0 30 30 0 7 0 35 0 71 0 0 0 0 0 40 85 88 0 0 0 0
0 96 0 83 26 0 87 0 0 0 0 0 0 0 35 0 67 0 0 0 0 0
0 73 0 5 0 0 100 0 0 0 0 12 0 0 0 0 0 32 0 0 0
0 0 0 0 0 64 0 0 0 6 0 0 19 0 0 0 0 19 0 0
0 0 0 0 0 15 93 0 0 0 0 0 0 0 0 0 47 14 0
0 0 66 0 0 72 1 0 0 0 0 95 71 0 0 61 0 0
0 0 0 36 0 0 0 83 99 0 42 71 0 49 0 0 0
0 21 0 0 0 4 0 23 0 68 0 77 0 0 0 0
0 0 0 0 0 0 0 0 0 87 0 20 0 0 56
0 0 0 99 2 0 0 0 0 0 0 0 0 0
0 0 0 0 0 0 86 12 70 0 0 61 0
0 94 0 0 0 0 77 0 0 65 0 0
0 0 0 0 0 0 0 0 15 82 0
0 0 0 87 15 0 13 8 91 0
0 70 0 0 0 0 24 0 0
0 0 0 0 0 0 0 0
0 83 64 0 73 0 16
0 0 0 0 0 0
0 0 0 0 0
0 85 56 0
0 0 0
0 21
0 0 0 0 0 31 0 0 0 0 0 10 1 17 0 0 0 0 74 0 0 0 0 0 0 90 0 0 0
0 57 32 0 0 0 0 0 0 25 0 75 60 0 0 36 0 0 4 9 0 0 0 0 0 0 0 0
0 0 0 5 0 47 0 0 0 77 0 0 0 0 0 0 0 0 0 0 0 3 88 0 0 0 0
0 0 0 99 0 0 4 0 79 0 30 81 0 0 39 9 0 0 0 0 0 0 0 100 0 40
0 0 0 0 18 0 0 0 0 0 7 0 0 2 0 47 0 0 0 0 16 0 31 0 0
0 52 59 0 0 0 47 81 0 16 0 0 0 0 0 92 0 49 0 0 0 0 0 0
0 0 0 0 0 52 0 0 0 0 0 100 0 0 67 0 0 0 0 75 0 0 0
0 0 0 0 51 0 0 73 0 100 0 0 0 73 0 0 0 0 0 0 0 0
0 0 0 0 0 0 0 0 0 0 0 0 75 0 0 0 0 0 0 62 0
0 58 0 36 0 15 0 14 0 62 6 0 34 0 61 0 0 0 0 0
0 0 5 0 0 41 64 0 55 54 0 0 0 0 0 0 63 0 0
0 0 0 0 95 0 0 10 64 0 0 0 0 0 0 0 0 77
0 41 0 69 13 0 0 0 0 0 0 0 0 0 67 0 0
0 55 0 68 0 0 0 0 0 0 0 0 0 0 0 0
0 0 0 0 26 0 0 0 0 0 0 0 0 84 0
0 0 0 0 0 0 0 84 0 70 0 0 8 0
0 0 64 0 2 0 0 9 0 0 19 0 95
0 0 7 0 24 0 0 0 0 0 0 83
0 0 0 0 100 0 0 0 0 0 0
0 0 67 0 0 0 0 0 0 0
0 0 0 0 0 0 0 0 0
0 86 0 0 0 0 0 0
0 0 84 0 0 0 0
0 0 0 0 0 0
0 46 0 40 0
0 0 0 66
0 0 0
0 0
0
0 0 86 37 0 0 0 0 0 0 0 0 38 0 0 0 0 0 0 0 66 0 14 0 0 0 0 15
0 0 91 0 0 0 40 0 0 0 0 0 0 0 0 99 11 0 0 0 0 0 0 0 69 0 0
0 0 0 0 0 0 58 0 0 50 0 0 0 15 0 0 0 0 0 0 0 0 0 0 0 26
0 58 0 27 0 0 0 0 2 97 0 0 0 0 94 0 24 0 0 0 0 0 0 56 23
0 0 92 0 66 0 19 46 0 0 0 81 0 99 0 0 0 91 0 94 60 0 0 0
0 0 1 81 0 0 0 0 3 0 55 0 0 68 0 0 67 0 0 0 0 0 0
0 0 0 0 0 12 0 39 0 83 0 0 0 0 93 0 50 0 0 0 0 0
0 0 0 0 0 0 14 0 89 0 0 47 0 0 0 0 0 0 0 0 77
0 0 41 0 6 0 0 59 3 96 0 0 70 0 0 0 74 0 83 35
0 0 0 0 0 0 0 94 51 0 0 0 0 0 0 0 0 0 0
0 0 0 0 0 0 0 0 0 0 49 0 10 29 0 93 0 0
0 0 0 85 0 0 0 42 0 0 0 0 0 0 49 0 0
0 0 0 0 0 0 60 0 0 0 60 0 0 28 0 0
0 0 23 0 74 0 0 0 0 0 0 0 0 0 0
0 44 0 0 0 0 33 0 0 0 0 0 0 0
0 0 70 0 0 0 0 0 0 0 0 44 0
0 0 0 0 0 0 0 0 0 0 0 0
0 97 94 0 0 0 96 0 92 0 0
0 0 0 0 0 0 0 0 0 1
0 0 2 99 0 0 0 0 1
0 0 99 0 0 0 0 0
0 0 0 0 40 0 0
0 21 90 0 0 0
0 0 55 96 0
0 47 0 0
0 0 0
0 0
0
0 0 62 0 82 0 88 0 0 70 16 94 61 0 49 71 81 66 0 0 0 0 0 0 0 21 0
0 0 79 0 0 0 0 24 0 0 0 0 50 0 0 0 0 0 37 0 0 0 0 0 0 0
0 0 0 0 0 0 0 0 0 95 94 66 0 0 0 75 0 55 0 0 19 0 54 49 0
0 0 56 20 0 0 63 87 0 0 0 0 0 0 0 72 0 0 0 0 0 0 0 0
0 0 0 0 0 0 0 0 0 11 0 0 0 0 0 0 88 36 0 0 44 0 0
0 0 0 0 0 0 0 85 0 97 0 0 29 0 0 76 86 72 0 0 0 56
0 0 0 0 0 37 0 0 0 0 0 0 0 0 0 0 0 0 0 0 0
0 0 0 0 39 0 0 0 0 0 0 0 0 8 0 0 6 0 0 49
0 70 0 0 0 0 41 85 19 69 0 0 0 0 0 0 0 0 0
0 0 51 0 19 0 0 0 0 0 0 83 0 69 0 0 0 0
0 0 0 1 19 0 56 0 0 0 0 0 56 0 0 0 0
0 0 0 0 0 0 79 0 0 68 100 47 14 0 0 0
0 0 0 0 53 56 0 32 0 0 88 7 0 0 0
0 0 0 0 0 0 36 0 0 41 15 0 0 6
0 0 0 0 24 0 0 0 0 0 0 70 0
0 0 0 45 0 0 0 50 0 0 50 0
0 0 0 49 0 58 7 0 75 0 0
0 0 79 0 0 0 0 0 0 0
0 65 0 48 84 0 0 0 30
0 0 13 0 0 0 0 0
0 0 30 0 0 0 0
0 0 8 0 0 0
0 0 37 0 0
0 0 0 32
0 0 0
0 0
0
0 0 0 0 0 0 12 0 0 0 34 0 0 57 0 0 0 0 0 0 0 0 0 0 0 62
0 72 48 0 0 40 0 0 0 0 0 0 31 0 0 10 28 0 9 0 0 0 0 0 0
0 48 0 91 0 0 99 0 82 0 0 33 0 0 0 0 0 42 80 0 0 0 66 0
0 0 0 92 0 0 0 57 0 0 0 100 0 70 0 0 0 0 65 69 0 0 0
0 0 68 0 0 0 91 0 84 0 0 72 0 0 0 35 0 0 0 62 0 0
0 0 0 0 38 0 0 0 76 0 0 0 0 0 0 28 0 0 0 0 0
0 0 0 0 21 0 0 0 0 0 12 0 0 0 0 0 0 0 0 0
0 0 0 0 0 0 0 0 0 0 0 0 0 7 24 83 0 0 17
0 0 0 81 0 0 0 0 0 0 70 0 0 0 0 0 0 0
0 65 0 0 0 0 0 65 0 0 0 0 0 0 9 50 0
0 0 0 0 23 0 0 0 0 0 0 0 0 0 0 0
0 0 0 0 0 0 0 0 18 0 44 3 0 0 0
0 0 15 0 61 0 0 0 0 0 77 0 0 0
0 0 0 0 0 79 0 0 14 0 66 56 0
0 0 0 0 74 0 0 63 0 0 0 0
0 0 5 0 0 0 54 0 26 22 0
0 0 0 0 0 0 67 56 0 0
0 0 0 0 0 0 0 0 0
0 7 0 0 59 0 0 76
0 0 0 0 0 0 0
0 0 0 92 0 0
0 0 0 0 85
0 0 0 63
0 0 0
0 0
0
0 61 0 0 0 0 0 0 0 0 19 0 0 0 0 0 0 0 0 0 0 0 0 8 0
0 0 0 0 0 0 0 0 0 57 0 0 0 0 62 0 0 0 59 0 0 0 0 0
0 0 0 0 54 0 0 59 96 0 89 0 0 0 0 0 0 0 0 0 90 0 0
0 2 0 0 0 85 0 0 29 0 0 0 0 0 0 0 27 0 0 0 51 42
0 0 0 0 0 0 65 0 0 0 0 0 0 76 0 0 32 98 25 68 0
0 0 0 0 51 0 0 0 0 0 0 0 100 0 18 0 52 19 0 0
0 0 0 0 0 0 0 0 0 38 0 0 0 47 0 0 0 46 0
0 50 0 95 0 0 64 0 74 0 0 0 0 0 0 0 0 0
0 0 0 0 0 0 0 0 0 89 0 63 0 0 61 0 0
0 0 0 0 44 63 75 47 0 0 69 50 0 0 0 0
0 38 0 0 0 27 0 0 0 95 0 0 0 0 0
0 0 60 0 0 85 0 0 0 0 4 0 30 0
0 0 0 0 0 93 5 34 78 93 0 0 0
0 0 0 0 0 0 30 0 0 0 0 0
0 0 0 0 0 0 12 14 0 0 100
0 0 0 0 75 27 0 23 0 23
0 57 0 61 0 82 0 24 3
0 0 51 0 72 0 0 0
0 0 0 0 67 0 0
0 0 0 46 0 0
0 0 14 0 0
0 0 44 0
0 92 90
0 0
0
0 99 0 0 75 0 0 0 0 46 81 0 0 0 88 0 0 0 0 0 45 0 65 0
0 0 86 5 0 0 76 33 0 0 0 53 0 0 0 0 0 0 0 0 45 0 0
0 0 0 98 0 0 0 21 0 85 0 0 0 99 0 91 0 0 54 0 0 0
0 0 0 0 67 0 0 95 31 50 100 0 2 0 95 0 0 0 0 41 0
0 99 0 0 0 0 0 0 0 4 0 0 0 0 0 79 0 0 0 0
0 0 0 0 0 0 16 0 100 0 0 72 0 0 0 56 0 0 55
0 0 0 0 53 0 0 0 0 0 0 0 79 22 5 0 0 0
0 0 0 0 0 0 0 92 17 0 0 0 0 66 0 0 0
0 90 0 0 0 79 0 20 0 0 0 14 0 97 21 0
0 0 0 0 0 0 0 0 31 0 14 0 0 0 0
0 0 31 98 0 0 0 0 0 0 0 94 0 0
0 99 0 0 0 0 0 12 0 0 0 47 0
0 0 0 0 69 0 0 4 57 0 0 0
0 99 77 85 0 77 0 0 0 0 0
0 43 0 0 0 58 0 0 3 0
0 79 0 0 0 0 0 0 15
0 0 0 0 0 0 0 0
0 0 12 0 0 0 0
0 0 0 0 0 0
0 0 0 0 0
0 0 93 54
0 0 0
0 38
0
0 0 0 0 0 0 0 0 44 71 0 0 0 0 0 0 0 0 0 0 0 0 62
0 0 11 0 0 0 95 14 0 0 0 62 0 0 0 28 10 5 24 52 49 0
0 0 0 0 0 0 31 44 0 0 0 59 0 0 40 72 0 0 0 0 0
0 0 45 0 0 0 0 83 66 0 0 0 61 0 43 0 0 67 65 0
0 0 88 0 0 0 5 0 39 0 0 0 0 0 0 0 0 0 41
0 0 0 95 0 0 0 0 0 0 0 0 41 0 24 0 0 0
0 0 73 41 0 97 0 0 59 0 0 0 0 0 0 65 0
0 0 45 0 0 90 99 77 89 59 0 70 0 0 0 0
0 0 16 0 0 0 0 0 0 0 0 59 46 39 0
0 0 0 0 0 90 0 0 0 0 0 62 0 49
0 0 0 0 0 0 46 0 0 0 98 0 0
0 0 0 81 83 0 27 38 0 65 0 0
0 0 0 0 50 0 33 0 0 0 0
0 0 0 0 0 62 0 40 0 0
0 0 91 83 0 0 0 0 0
0 0 0 0 98 0 85 0
0 0 0 0 0 14 0
0 0 0 75 0 0
0 0 0 0 0
0 0 0 17
0 79 0
0 0
0
0 0 0 0 0 0 0 0 0 0 0 0 0 0 0 0 37 0 63 0 0 0
0 0 0 100 37 0 0 0 32 0 0 91 0 0 0 0 0 30 0 48 0
0 0 74 0 49 0 0 0 0 55 0 2 0 0 78 41 0 0 0 0
0 0 0 0 0 0 57 0 0 13 0 0 79 65 0 0 0 0 0
0 0 46 0 0 0 0 0 0 0 0 0 0 71 13 0 0 0
0 0 0 0 0 0 0 0 10 0 77 7 0 0 0 0 83
0 0 0 0 0 0 71 0 71 61 0 49 0 96 25 40
0 0 0 0 0 0 0 0 0 38 0 82 59 0 0
0 0 0 85 0 0 36 0 0 0 0 0 0 0
0 0 55 0 0 0 0 0 0 0 0 0 0
0 0 82 0 54 0 0 46 8 0 2 34
0 92 0 56 0 89 0 0 0 89 0
0 0 0 70 0 89 0 0 0 0
0 0 0 0 26 0 0 0 0
0 0 76 0 40 0 0 0
0 0 3 34 0 0 0
0 0 0 0 50 79
0 0 0 0 42
0 0 92 0
0 0 0
0 0
0
0 0 0 0 46 71 0 0 0 0 0 0 0 0 0 0 0 0 0 19 0
0 24 54 0 0 17 0 34 0 22 0 72 0 0 0 0 0 0 0 0
0 69 93 2 0 0 0 0 0 0 0 0 0 0 0 0 8 0 0
0 0 7 0 0 57 0 0 0 0 0 13 0 0 0 0 0 0
0 0 0 0 67 0 0 0 0 0 0 0 67 0 24 0 0
0 0 34 0 29 0 6 75 0 34 0 79 0 0 0 0
0 73 0 0 0 0 74 54 0 7 31 0 0 31 62
0 56 0 0 0 12 0 0 0 0 0 0 0 0
0 0 0 0 0 66 0 12 0 0 100 0 0
0 0 9 0 0 0 34 0 0 0 0 0
0 14 69 0 0 0 0 0 0 0 0
0 0 86 0 0 0 0 0 42 0
0 0 0 0 10 0 0 0 37
0 29 34 0 0 0 11 0
0 58 0 74 0 0 24
0 3 0 0 0 0
0 0 0 0 0
0 0 0 90
0 46 0
0 0
0
0 0 0 0 0 0 68 0 0 0 0 0 0 0 0 0 0 72 13 24
0 0 0 0 0 0 0 0 0 0 0 0 0 0 0 0 0 84 91
0 21 0 0 0 0 0 26 0 0 0 0 0 0 0 0 0 0
0 0 0 0 0 0 0 35 59 0 86 0 0 0 0 0 0
0 0 0 0 0 72 0 0 88 9 57 0 0 0 69 0
0 0 0 0 0 0 0 0 0 0 0 0 0 0 99
0 0 0 0 98 0 0 0 86 0 0 85 0 0
0 0 0 0 72 0 0 71 0 3 12 0 0
0 0 0 0 0 12 9 0 0 17 0 0
0 0 0 0 0 0 31 0 33 0 33
0 0 0 0 0 74 0 0 0 66
0 0 0 0 0 65 0 0 0
0 0 8 0 0 0 0 0
0 0 0 0 0 0 0
0 0 0 0 0 0
0 0 0 0 0
0 0 0 68
0 43 0
0 0
0
0 77 19 0 0 0 0 0 42 0 0 0 75 0 0 0 0 0 0
0 0 73 76 0 0 0 0 0 0 80 0 0 7 0 0 0 0
0 0 0 0 67 0 0 0 0 63 0 46 0 0 0 28 0
0 0 0 0 0 0 0 0 0 91 0 0 0 0 0 0
0 0 0 0 0 21 0 0 0 0 0 0 0 0 0
0 0 0 57 0 0 0 0 0 0 49 0 51 0
0 0 0 96 61 44 0 30 0 0 0 7 0
0 0 32 0 80 0 0 16 72 0 0 0
0 0 0 0 0 13 0 0 0 0 0
0 0 0 0 0 0 0 0 0 0
0 0 0 60 12 18 0 86 0
0 0 0 0 0 0 0 0
0 0 0 0 0 0 0
0 0 35 0 0 0
0 11 0 0 84
0 0 0 0
0 0 48
0 0
0
0 0 0 0 3 70 0 0 0 0 26 0 38 0 20 0 0 0
0 61 52 59 0 0 0 44 41 69 0 0 0 0 0 0 0
0 0 0 0 0 0 0 0 0 87 0 0 0 0 0 0
0 71 93 0 0 0 0 91 23 64 46 0 69 88 84
0 61 0 0 0 0 0 0 41 0 0 0 29 0
0 0 0 0 0 0 53 0 0 9 0 45 82
0 0 63 0 0 0 0 0 0 41 0 0
0 0 40 0 0 2 0 0 0 0 0
0 0 0 0 0 0 45 0 0 70
0 0 100 0 40 9 0 0 14
0 0 0 0 16 0 2 0
0 0 53 0 47 0 0
0 25 0 0 0 26
0 0 0 0 0
0 89 97 0
0 0 95
0 71
0
0 88 0 0 0 2 0 0 0 0 0 49 0 0 0 0 0
0 0 16 0 0 0 0 70 0 0 0 0 26 38 0 0
0 53 0 0 0 56 0 0 0 0 0 0 0 0 0
0 0 0 23 32 0 0 0 0 0 0 39 0 0
0 0 0 0 36 0 0 0 0 0 0 0 1
0 0 73 0 0 79 0 0 0 0 0 12
0 0 89 0 0 15 0 0 0 0 0
0 0 0 74 0 0 0 0 0 0
0 0 10 0 55 0 49 47 0
0 92 0 0 76 26 12 0
0 0 0 0 33 0 43
0 34 0 0 0 0
0 0 0 0 71
0 0 0 0
0 0 14
0 0
0
0 95 0 46 0 0 0 0 0 60 0 0 0 0 20 0
0 0 24 51 0 0 0 0 0 0 0 0 0 0 0
0 93 0 36 0 23 12 65 0 0 0 0 0 0
0 81 0 0 0 0 0 0 0 49 0 0 0
0 0 0 18 0 0 0 0 0 0 0 0
0 0 75 57 0 0 0 47 30 19 0
0 93 0 0 96 0 0 47 0 0
0 0 0 0 25 0 0 54 0
0 50 0 0 13 0 0 0
0 0 0 0 9 0 0
0 0 0 0 0 0
0 0 92 0 0
0 0 42 0
0 0 0
0 11
0
0 0 0 6 0 58 0 0 21 0 0 0 70 0 0
0 0 30 63 0 0 0 0 0 0 0 0 0 55
0 0 0 0 0 0 16 0 0 7 0 0 0
0 0 0 15 0 0 0 0 0 0 0 0
0 0 0 0 0 0 0 20 0 0 0
0 13 0 13 0 0 0 85 6 0
0 0 0 49 0 0 0 0 30
0 0 0 68 69 0 79 0
0 0 0 0 75 0 0
0 0 0 0 0 10
0 0 0 0 0
0 0 81 0
0 0 0
0 0
0
0 0 0 0 0 32 0 0 0 99 0 0 0 0
0 15 0 36 0 0 0 0 0 23 0 48 0
0 0 0 0 0 0 14 0 0 2 0 0
0 30 88 0 19 0 0 0 0 0 0
0 0 0 0 24 0 0 0 0 0
0 0 0 0 0 68 0 37 2
0 87 0 0 0 0 0 72
0 0 75 0 35 0 0
0 0 0 27 27 63
0 0 0 0 0
0 57 0 0
0 0 0
0 0
0
0 0 0 0 37 47 0 29 0 0 0 0 0
0 0 0 0 0 0 0 0 100 45 74 0
0 38 0 46 16 0 0 0 0 0 47
0 0 41 0 24 0 0 0 43 11
0 0 0 0 97 0 0 0 0
0 0 0 0 0 0 0 0
0 0 0 0 0 55 0
0 0 86 0 0 0
0 0 0 40 0
0 0 0 0
0 0 65
0 0
0
0 0 0 0 0 0 0 0 0 13 0 0
0 0 27 0 0 0 0 0 45 0 0
0 0 0 0 1 0 97 0 0 71
0 0 0 91 0 0 77 0 93
0 0 0 0 0 0 0 78
0 0 74 1 0 0 0
0 0 0 0 0 0
0 0 0 0 0
0 0 0 0
0 0 78
0 0
0
0 0 0 0 0 0 0 0 0 0 62
0 0 0 0 0 0 62 0 0 0
0 0 0 12 0 0 0 0 84
0 0 0 32 0 64 0 0
0 89 88 0 0 44 0
0 0 0 0 0 0
0 0 0 0 0
0 0 0 0
0 0 53
0 0
0
0 4 0 0 0 0 0 0 0 0
0 0 0 0 0 0 0 9 0
0 0 36 0 0 23 0 21
0 42 0 0 0 0 0
0 0 0 59 0 0
0 75 0 0 0
0 0 49 57
0 0 0
0 87
0
0 0 0 0 0 0 0 0 0
0 0 72 20 0 0 0 0
0 0 0 0 32 0 0
0 0 0 0 0 0
0 0 0 0 0
0 71 0 0
0 18 51
0 0
0
0 0 53 0 21 0 0 0
0 36 0 0 0 0 0
0 0 0 0 0 0
0 0 0 18 0
0 0 0 74
0 0 0
0 0
0
0 0 0 0 45 0 0
0 0 24 0 0 0
0 0 56 42 69
0 5 0 33
0 0 44
0 0
0
0 0 11 0 0 0
0 0 0 0 0
0 0 0 0
0 0 0
0 0
0
0 0 0 69 0
0 0 0 99
0 0 0
0 0
0
0 0 3 0
0 5 0
0 78
0
0 12 0
0 41
0
0 0
0
0
4873 5347 5571 5431 5656 5943 7310 6098 5654 4789 4994 5413 5106 5682 6272 5554 4982 6024 4153 5721 5487 5290 5550 5337 5623 5029 5253 5772 4732 5019
622.6611111111112 742.6388888888889 171.91368515205724 263.3566810344828 364.2121212121212 708.5884615384615 848.9032258064516 580.7619047619048 257.53209109730847 494.86333333333334 224.8256704980843 226.86838235294118 288.8242424242424 268.58193277310926 163.59891598915988 213.3628841607565 943.5606060606061 377.9764705882353 127.40430402930403 447.8560606060606 1005.95 247.81981981981983 172.15277777777777 1404.4736842105262 341.10110294117646 589.6068965517242 615.8689655172413 307.1932773109244 630.9333333333333 151.47432432432433
